n_res = 3;
rcap = [13, 13, 84];
rtype = [1, 1, 2];
n_tasks = 16;
modes = [ {1, 2, 3}, {4, 5, 6}, {7, 8, 9}, {10, 11, 12}, {13, 14, 15}, {16, 17, 18}, {19, 20, 21}, {22, 23, 24}, {25, 26, 27}, {28, 29, 30}, {31, 32, 33}, {34, 35, 36}, {37, 38, 39}, {40, 41, 42}, {43, 44, 45}, {46, 47, 48} ];
succ = [ {4, 6, 8}, {14}, {6, 7, 8}, {5, 7, 9}, {10, 12, 13}, {10, 13}, {14}, {12, 13}, {10, 11, 16}, {15}, {12}, {14, 15}, {15, 16}, {}, {}, {} ];
n_opt = 48;
dur = [5, 9, 9, 5, 6, 9, 2, 2, 4, 1, 7, 8, 3, 4, 8, 1, 10, 10, 1, 8, 10, 4, 4, 9, 6, 9, 10, 6, 7, 9, 1, 4, 6, 1, 3, 6, 2, 7, 8, 7, 8, 9, 2, 2, 7, 5, 6, 10];
rreq = [|  5,  4,  4,  3,  3,  3, 10,  9,  8,  9,  4,  2,  8,  6,  5, 10,  6,  1,  7,  7,  3,  7,  5,  5,  5,  5,  4,  4,  3,  1, 10,  8,  8,  3,  3,  2,  8,  8,  8,  2,  1,  1,  9,  7,  3,  6,  4,  2
        |  6,  5,  4,  8,  8,  6,  5,  6,  2,  6,  6,  6,  8,  8,  7,  9,  6,  7,  7,  5,  5,  6,  8,  3,  7,  7,  5,  7,  5,  2,  7,  6,  6,  7,  7,  4,  5,  4,  2,  3,  3,  3,  5,  9,  2,  6,  6,  6
        |  6,  3,  6,  5,  3,  2,  4,  5,  3,  5,  4,  4,  7,  7,  3,  7,  4,  4,  7,  7,  6,  9,  8,  6,  9,  6,  6,  2,  2,  2,  9,  6,  5,  7,  6,  3,  8,  5,  2, 10,  5,  2,  6,  6,  6,  6,  6,  3 |];
